TYPE : Vertex Cover
DIMENSION: 33
EDGE_DATA_SECTION:
0 14
0 15
0 20
0 26
0 30
1 8
1 12
1 15
1 22
1 24
1 25
1 27
2 13
2 16
2 21
2 22
2 31
3 12
3 13
3 15
3 18
3 24
3 27
3 29
3 31
4 10
4 16
4 18
4 21
4 25
5 23
6 26
7 12
7 15
7 17
7 19
7 28
7 32
8 13
8 21
8 26
8 31
9 11
9 32
10 13
10 18
10 19
10 21
10 23
10 24
10 29
11 15
11 17
11 25
11 27
11 30
12 21
12 28
13 22
13 23
13 27
14 24
14 28
15 23
16 17
16 19
16 22
16 27
16 28
16 31
16 32
17 18
17 20
17 29
17 30
17 32
18 20
18 22
18 24
18 28
19 21
19 23
19 27
20 21
20 25
20 30
21 23
21 29
21 32
22 23
22 25
22 26
22 27
23 28
23 30
24 27
24 31
25 32
26 28
26 29
26 31
27 32
28 29
28 32
29 32
-1
VERTEX_DEGREE:
5.0 7.0 5.0 8.0 5.0 1.0 1.0 6.0 5.0 2.0 8.0 6.0 5.0 7.0 3.0 6.0 9.0 8.0 8.0 6.0 6.0 10.0 9.0 9.0 7.0 6.0 7.0 9.0 9.0 7.0 5.0 6.0 9.0
VERTEX_COVER:
0 1 3 4 7 10 11 13 16 17 20 21 22 23 24 26 27 28 31 32
EOF
